SCIP Status        : solving was interrupted [time limit reached]
Total Time         :    3600.00
  solving          :    3600.00
  presolving       :       0.36 (included in solving)
  reading          :       0.00
  copying          :       1.08 (58 #copies) (minimal 0.00, maximal 0.04, average 0.02)
Original Problem   :
  Problem name     : bbbenchmark/g05_100.0.cut
  Variables        : 101 (100 binary, 0 integer, 0 implicit integer, 1 continuous)
  Constraints      : 1 initial, 1 maximal
  Objective        : minimize, 1 non-zeros (abs.min = 1, abs.max = 1)
Presolved Problem  :
  Problem name     : t_bbbenchmark/g05_100.0.cut
  Variables        : 1806 (100 binary, 0 integer, 1690 implicit integer, 16 continuous)
  Constraints      : 1736 initial, 3779 maximal
  Objective        : minimize, 1 non-zeros (abs.min = 1, abs.max = 1)
  Nonzeros         : 8521 constraint, 202 clique table
Presolvers         :   ExecTime  SetupTime  Calls  FixedVars   AggrVars   ChgTypes  ChgBounds   AddHoles    DelCons    AddCons   ChgSides   ChgCoefs
  boundshift       :       0.00       0.00      0          0          0          0          0          0          0          0          0          0
  convertinttobin  :       0.00       0.00      0          0          0          0          0          0          0          0          0          0
  domcol           :       0.00       0.00      1          0          0          0          0          0          0          0          0          0
  dualagg          :       0.00       0.00      0          0          0          0          0          0          0          0          0          0
  dualcomp         :       0.00       0.00      1          0          0          0          0          0          0          0          0          0
  dualinfer        :       0.00       0.00      0          0          0          0          0          0          0          0          0          0
  dualsparsify     :       0.00       0.00      1          0          0          0          0          0          0          0          0          0
  gateextraction   :       0.00       0.00      0          0          0          0          0          0          0          0          0          0
  implics          :       0.00       0.00      2          0          0          0          0          0          0          0          0          0
  inttobinary      :       0.00       0.00      0          0          0          0          0          0          0          0          0          0
  qpkktref         :       0.00       0.00      0          0          0          0          0          0          0          0          0          0
  redvub           :       0.00       0.00      0          0          0          0          0          0          0          0          0          0
  sparsify         :       0.00       0.00      1          0          0          0          0          0          0          0          0          0
  stuffing         :       0.00       0.00      0          0          0          0          0          0          0          0          0          0
  trivial          :       0.00       0.00      4          0          0          0          0          0          0          0          0          0
  tworowbnd        :       0.00       0.00      0          0          0          0          0          0          0          0          0          0
  dualfix          :       0.00       0.00      4          0          0          0          0          0          0          0          0          0
  genvbounds       :       0.00       0.00      0          0          0          0          0          0          0          0          0          0
  probing          :       0.29       0.00      1          0          0          0          0          0          0          0          0          0
  pseudoobj        :       0.00       0.00      1          0          0          0          1          0          0          0          0          0
  symmetry         :       0.00       0.00      0          0          0          0          0          0          0          0          0          0
  vbounds          :       0.00       0.00      1          0          0          0          0          0          0          0          0          0
  varbound         :       0.00       0.00      2          0          0          0          0          0          0          0          0          0
  and              :       0.01       0.00      2          0          0          0          0          0          0          0          0          0
  linear           :       0.00       0.00      2          0          0          0          0          0          0          0          0          0
  logicor          :       0.00       0.00      0          0          0          0          0          0          0          0          0          0
  bounddisjunction :       0.00       0.00      0          0          0          0          0          0          0          0          0          0
  nonlinear        :       0.06       0.01      5          0          0          0          1          0          0       1735          0          0
  benders          :       0.00       0.00      0          0          0          0          0          0          0          0          0          0
  components       :       0.00       0.00      1          0          0          0          0          0          0          0          0          0
  root node        :          -          -      -          0          -          -         13          -          -          -          -          -
Constraints        :     Number  MaxNumber  #Separate #Propagate    #EnfoLP    #EnfoRelax  #EnfoPS    #Check   #ResProp    Cutoffs    DomReds       Cuts    Applied      Conss   Children
  benderslp        :          0          0          0          0      86749          0          0       3233          0          0          0          0          0          0          0
  integral         :          0          0          0          0      86749          0          0       3233          0          0       1250          0          0        990     171866
  varbound         :         15         15        126     599467          0          0          0         23          0          0      59702          0          0          0          0
  and              :       1690       1690     103263     636990          0          0          0         23     250017          1     457055       6224       5943          0          0
  linear           :         31+        46        126     637033          0          0          0         21       5076         52     320174          0          0          0          0
  logicor          :          0+      1529          0      99986          0          0          0          0        121        255        120          0          0          0          0
  bounddisjunction :          0+       730          0      85671          0          0          0          0          4         77          3          0          0          0          0
  benders          :          0          0          0          0          0          0          0         24          0          0          0          0          0          0          0
  countsols        :          0          0          0          0          0          0          0         24          0          0          0          0          0          0          0
  components       :          0          0          0          0          0          0          0          0          0          0          0          0          0          0          0
Constraint Timings :  TotalTime  SetupTime   Separate  Propagate     EnfoLP     EnfoPS     EnfoRelax   Check    ResProp    SB-Prop
  benderslp        :       0.12       0.00       0.00       0.00       0.11       0.00       0.00       0.01       0.00       0.00
  integral         :      57.88       0.00       0.00       0.00      57.87       0.00       0.00       0.01       0.00       0.00
  varbound         :       1.37       0.00       0.00       1.37       0.00       0.00       0.00       0.00       0.00       0.00
  and              :      82.37       0.00      55.80      25.93       0.00       0.00       0.00       0.00       0.21       0.43
  linear           :       4.33       0.00       0.02       4.23       0.00       0.00       0.00       0.00       0.03       0.05
  logicor          :       3.22       0.00       0.00       3.22       0.00       0.00       0.00       0.00       0.00       0.00
  bounddisjunction :       1.97       0.00       0.00       1.96       0.00       0.00       0.00       0.00       0.00       0.01
  benders          :       0.00       0.00       0.00       0.00       0.00       0.00       0.00       0.00       0.00       0.00
  countsols        :       0.00       0.00       0.00       0.00       0.00       0.00       0.00       0.00       0.00       0.00
  components       :       0.20       0.00       0.00       0.20       0.00       0.00       0.00       0.00       0.00       0.00
Propagators        : #Propagate   #ResProp    Cutoffs    DomReds
  dualfix          :          4          0          0          0
  genvbounds       :          0          0          0          0
  nlobbt           :          0          0          0          0
  obbt             :          0          0          0          0
  probing          :          0          0          0          0
  pseudoobj        :     384082          0          0         13
  redcost          :     200751          0          0      62457
  rootredcost      :         12          0          0          0
  symmetry         :          0          0          0          0
  vbounds          :     112975          0          0          0
Propagator Timings :  TotalTime  SetupTime   Presolve  Propagate    ResProp    SB-Prop
  dualfix          :       0.00       0.00       0.00       0.00       0.00       0.00
  genvbounds       :       0.33       0.00       0.00       0.33       0.00       0.00
  nlobbt           :       0.00       0.00       0.00       0.00       0.00       0.00
  obbt             :       0.00       0.00       0.00       0.00       0.00       0.00
  probing          :       0.29       0.00       0.29       0.00       0.00       0.00
  pseudoobj        :       0.56       0.00       0.00       0.56       0.00       0.00
  redcost          :      13.59       0.00       0.00      13.59       0.00       0.00
  rootredcost      :       0.54       0.00       0.00       0.51       0.00       0.03
  symmetry         :       0.32       0.00       0.00       0.32       0.00       0.00
  vbounds          :       0.51       0.00       0.00       0.50       0.00       0.01
Conflict Analysis  :       Time      Calls    Success    DomReds  Conflicts   Literals    Reconvs ReconvLits   Dualrays   Nonzeros   LP Iters   (pool size: [10000,10000])
  propagation      :       0.00        334        244          -        376       74.8          0        0.0          -          -          -
  infeasible LP    :       0.54        366        366          -      13332      136.3          0        0.0        447      183.9          0
  bound exceed. LP :      17.54       4681       4128          -      63835      103.6          0        0.0          0        0.0      44293
  strong branching :       0.00          0          0          -          0        0.0          0        0.0          -          -          0
  pseudo solution  :       0.00          0          0          -          0        0.0          0        0.0          -          -          -
  applied globally :       0.36          -          -          0      18227      106.6          -          -        447          -          -
  applied locally  :          -          -          -          0          0        0.0          -          -          0          -          -
Separators         :   ExecTime  SetupTime      Calls  RootCalls    Cutoffs    DomReds  FoundCuts ViaPoolAdd  DirectAdd    Applied ViaPoolApp  DirectApp      Conss
  cut pool         :       2.57          -      19694        154          -          -      31046     318837          -          -          -          -          -    (maximal pool size:       2141)
  aggregation      :     301.12       0.00       4018        126          0          0        112        300          0        124        124          0          0
  > cmir           :          -          -          -          -          -          -          -        300          0        124        124          0          -
  > flowcover      :          -          -          -          -          -          -          -          0          0          0          0          0          -
  > knapsackcover  :          -          -          -          -          -          -          -          0          0          0          0          0          -
  cgmip            :       0.00       0.00          0          0          0          0          0          0          0          0          0          0          0
  clique           :       0.00       0.00        126        126          0          0          0          0          0          0          0          0          0
  closecuts        :       0.00       0.00          0          0          0          0          0          0          0          0          0          0          0
  convexproj       :       0.00       0.00          0          0          0          0          0          0          0          0          0          0          0
  disjunctive      :       0.00       0.00          0          0          0          0          0          0          0          0          0          0          0
  eccuts           :       0.00       0.00          0          0          0          0          0          0          0          0          0          0          0
  gauge            :       0.00       0.00          0          0          0          0          0          0          0          0          0          0          0
  gomory           :       0.00       0.00          0          0          0          0          0          0          0          0          0          0          0
  > gomorymi       :          -          -          -          -          -          -          -          0          0          0          0          0          -
  > strongcg       :          -          -          -          -          -          -          -          0          0          0          0          0          -
  impliedbounds    :       0.25       0.00       4018        126          0          0         25          2          0          2          2          0          0
  interlattice     :       0.32       0.00         40         40          0          0         40          0         40         40          0         40          0
  interminor       :       0.00       0.00          0          0          0          0          0          0          0          0          0          0          0
  intersub         :       1.19       0.00         40         40          0          0         40          0         40         40          0         40          0
  intobj           :       0.00       0.00          0          0          0          0          0          0          0          0          0          0          0
  mcf              :       0.00       0.00          1          1          0          0          0          0          0          0          0          0          0
  minor            :       0.00       0.00          0          0          0          0          0          0          0          0          0          0          0
  mixing           :       0.00       0.00       4018        126          0          0          0          0          0          0          0          0          0
  oddcycle         :       0.00       0.00          0          0          0          0          0          0          0          0          0          0          0
  rapidlearning    :       0.00       0.00          0          0          0          0          0          0          0          0          0          0          0
  rlt              :       0.00       0.00         10         10          0          0          0          0          0          0          0          0          0
  zerohalf         :      34.83       0.00       3832         20          0          0      30909     318535          0     105107     105107          0          0
Cutselectors       :   ExecTime  SetupTime      Calls  RootCalls   Selected     Forced   Filtered  RootSelec   RootForc   RootFilt 
  hybrid           :       0.37       0.00      13736        124     111256          0     213885        294          0         13
Pricers            :   ExecTime  SetupTime      Calls       Vars
  problem variables:       0.00          -          0          0
Branching Rules    :   ExecTime  SetupTime   BranchLP  BranchExt   BranchPS    Cutoffs    DomReds       Cuts      Conss   Children
  allfullstrong    :       0.00       0.00          0          0          0          0          0          0          0          0
  cloud            :       0.00       0.00          0          0          0          0          0          0          0          0
  distribution     :       0.00       0.00          0          0          0          0          0          0          0          0
  fullstrong       :       0.00       0.00          0          0          0          0          0          0          0          0
  inference        :       0.00       0.00          0          0          0          0          0          0          0          0
  leastinf         :       0.00       0.00          0          0          0          0          0          0          0          0
  lookahead        :       0.00       0.00          0          0          0          0          0          0          0          0
  mostinf          :       0.00       0.00          0          0          0          0          0          0          0          0
  multaggr         :       0.00       0.00          0          0          0          0          0          0          0          0
  nodereopt        :       0.00       0.00          0          0          0          0          0          0          0          0
  pscost           :       0.00       0.00          0          0          0          0          0          0          0          0
  random           :       0.00       0.00          0          0          0          0          0          0          0          0
  relpscost        :      57.43       0.00      86749          0          0          0       1250          0        992     171866
  vanillafullstrong:       0.00       0.00          0          0          0          0          0          0          0          0
Primal Heuristics  :   ExecTime  SetupTime      Calls      Found       Best
  LP solutions     :       0.00          -          -          0          0
  relax solutions  :       0.00          -          -          0          0
  pseudo solutions :       0.00          -          -          0          0
  strong branching :       0.03          -          -          0          0
  actconsdiving    :       0.00       0.00          0          0          0
  adaptivediving   :       3.86       0.00         29          0          0
  alns             :       3.21       0.00         25          6          5
  bound            :       0.00       0.00          0          0          0
  clique           :       0.01       0.00          1          0          0
  coefdiving       :       0.00       0.00          0          0          0
  completesol      :       0.00       0.00          0          0          0
  conflictdiving   :      69.11       0.00        473          0          0
  crossover        :       1.76       0.00          4          1          1
  dins             :       0.00       0.00          0          0          0
  distributiondivin:      70.45       0.00        338          0          0
  dps              :       0.00       0.00          0          0          0
  dualval          :       0.00       0.00          0          0          0
  farkasdiving     :       0.03       0.00          0          0          0
  feaspump         :       0.31       0.00          1          1          1
  fixandinfer      :       0.00       0.00          0          0          0
  fracdiving       :      54.69       0.00        417          0          0
  gins             :       0.11       0.00          0          0          0
  guideddiving     :      58.63       0.00        416          2          2
  indicator        :       0.07       0.00          0          0          0
  indicatordiving  :       0.00       0.00          0          0          0
  intdiving        :       0.00       0.00          0          0          0
  intshifting      :       0.48       0.00         46          0          0
  linesearchdiving :      51.88       0.00        408          0          0
  localbranching   :       0.00       0.00          0          0          0
  locks            :       0.01       0.00          1          0          0
  lpface           :       0.13       0.00          0          0          0
  mpec             :     270.38       0.00         11          0          0
  multistart       :       0.00       0.00          0          0          0
  mutation         :       0.00       0.00          0          0          0
  nlpdiving        :      16.01       0.00          7          0          0
  objpscostdiving  :      29.09       0.00         33          1          0
  octane           :       0.00       0.00          0          0          0
  ofins            :       0.10       0.00          0          0          0
  oneopt           :       0.09       0.00         17          0          0
  padm             :       0.00       0.00          0          0          0
  proximity        :       0.00       0.00          0          0          0
  pscostdiving     :      59.23       0.00        344          3          3
  randrounding     :       0.87       0.00       3206          0          0
  rens             :       0.00       0.00          0          0          0
  reoptsols        :       0.00       0.00          0          0          0
  repair           :       0.00       0.00          0          0          0
  rins             :       5.65       0.00         29          1          1
  rootsoldiving    :      30.06       0.00         35          0          0
  rounding         :       1.51       0.00       4345          0          0
  shiftandpropagate:       0.00       0.00          0          0          0
  shifting         :      42.17       0.00       8601          3          3
  simplerounding   :       0.18       0.00          0          0          0
  subnlp           :     158.05       0.00          0          0          0
  trivial          :       0.00       0.00          2          2          2
  trivialnegation  :       0.00       0.00          0          0          0
  trustregion      :       0.00       0.00          0          0          0
  trysol           :       0.13       0.00          0          0          0
  twoopt           :       0.00       0.00          0          0          0
  undercover       :       1.59       0.00          1          1          1
  vbounds          :       0.00       0.00          0          0          0
  veclendiving     :      47.08       0.00        416          0          0
  zeroobj          :       0.00       0.00          0          0          0
  zirounding       :       0.60       0.00       1000          0          0
  other solutions  :          -          -          -          0          -
Diving (single)    :      Calls      Nodes   LP Iters Backtracks  Conflicts   MinDepth   MaxDepth   AvgDepth  RoundSols  NLeafSols  MinSolDpt  MaxSolDpt  AvgSolDpt
  actconsdiving    :          0          -          -          -          -          -          -          -          -          -          -          -          -
  coefdiving       :          0          -          -          -          -          -          -          -          -          -          -          -          -
  conflictdiving   :        473      23251     595966        474      23200         55         85       68.4          0          -          -          -          -
  distributiondivin:        338      14452     473911        381       6373         52         79       62.7          0          -          -          -          -
  farkasdiving     :          0          -          -          -          -          -          -          -          -          -          -          -          -
  fracdiving       :        417      40531     447966        141       2301         62        573      117.8          0          -          -          -          -
  guideddiving     :        416      42778     487343        115       2688         66        453      123.9          0          2        116        121      118.5
  indicatordiving  :          0          -          -          -          -          -          -          -          -          -          -          -          -
  linesearchdiving :        408      19833     472212         43      14641         56         90       69.0          0          -          -          -          -
  pscostdiving     :        344      15294     514148        356       4771         54         80       64.0          0          3         64         80       69.7
  veclendiving     :        416      20292     438901        100      19673         59         91       69.2          0          -          -          -          -
Diving (adaptive)  :      Calls      Nodes   LP Iters Backtracks  Conflicts   MinDepth   MaxDepth   AvgDepth  RoundSols  NLeafSols  MinSolDpt  MaxSolDpt  AvgSolDpt
  actconsdiving    :          1         48       1315          1         20         63         63       63.0          0          -          -          -          -
  coefdiving       :          5        233       4893          2        243         62         88       69.0          0          -          -          -          -
  conflictdiving   :          0          -          -          -          -          -          -          -          -          -          -          -          -
  distributiondivin:          0          -          -          -          -          -          -          -          -          -          -          -          -
  farkasdiving     :          0          -          -          -          -          -          -          -          -          -          -          -          -
  fracdiving       :          0          -          -          -          -          -          -          -          -          -          -          -          -
  guideddiving     :          2        149       2543          1         15         92         98       95.0          0          -          -          -          -
  indicatordiving  :          0          -          -          -          -          -          -          -          -          -          -          -          -
  linesearchdiving :          8        401       9309          0        278         60         78       69.2          0          -          -          -          -
  pscostdiving     :          0          -          -          -          -          -          -          -          -          -          -          -          -
  veclendiving     :         13        668      14181          2        626         64         75       68.8          0          -          -          -          -
Neighborhoods      :      Calls  SetupTime  SolveTime SolveNodes       Sols       Best       Exp3  EpsGreedy        UCB TgtFixRate  Opt  Inf Node Stal  Sol  Usr Othr Actv
  rens             :          3       0.07       0.18         84          0          0    0.00000   -1.00000    0.45749      0.662    0    2    0    1    0    0    0    1
  rins             :          1       0.00       0.00          0          0          0    0.00000   -1.00000    0.07220      0.900    0    0    0    0    0    0    1    1
  mutation         :          4       0.11       0.43        240          1          1    0.00000   -1.00000    0.47200      0.747    1    1    0    2    0    0    0    1
  localbranching   :          2       0.06       0.08         78          0          0    0.00000   -1.00000    0.46920      0.850    0    1    0    1    0    0    0    1
  crossover        :          6       0.18       0.82        189          1          1    0.00000   -1.00000    0.48654      0.506    1    3    0    2    0    0    0    1
  proximity        :          3       0.08       0.40        294          2          1    0.00000   -1.00000    0.48260      0.900    1    0    0    2    0    0    0    1
  zeroobjective    :          4       0.07       0.39        370          2          2    0.00000   -1.00000    0.49097      0.747    2    0    0    2    0    0    0    1
  dins             :          2       0.07       0.12         89          0          0    0.00000   -1.00000    0.45183      0.850    0    1    0    1    0    0    0    1
  trustregion      :          0       0.00       0.00          0          0          0    0.00000   -1.00000    1.00000      0.900    0    0    0    0    0    0    0    0
Expressions        :   #IntEval  IntEvalTi   #RevProp  RevPropTi    DomReds    Cutoffs  #Estimate  EstimTime  Branching  #Simplify SimplifyTi Simplified
  pow              :          0       0.00          0       0.00          0          0          0       0.00          0          0       0.00          0
  prod             :       9900       0.00          0       0.00          0          0          0       0.00          0       6640       0.00          0
  sum              :          8       0.00          2       0.00          0          0          0       0.00          0          3       0.01          2
  var              :       6227       0.01          0       0.00          0          0          0       0.00          0      15288       0.01          0
  varidx           :          0       0.00          0       0.00          0          0          0       0.00          0          0       0.00          0
LP                 :       Time      Calls Iterations  Iter/call   Iter/sec  Time-0-It Calls-0-It    ItLimit
  primal LP        :     132.50      14314          0       0.00       0.00     132.44      14314
  dual LP          :    1822.13     167984    9183760      59.44    5040.12       6.48      13477
  lex dual LP      :       0.00          0          0       0.00          -
  barrier LP       :       0.00          0          0       0.00          -       0.00          0
  resolve instable :       0.00          0          0       0.00          -
  diving/probing LP:     398.38      13307    3760408     282.59    9439.25
  strong branching :      23.45       1886     152917      81.08    6520.98          -          -        103
    (at root node) :          -         19       6851     360.58          -
  conflict analysis:       7.93       4648      44293       9.53    5585.50
NLP relaxation     :
  solve time       :      14.19 (9 calls)
  convexity        :  nonconvex (46 linear rows, 0 convex ineq., 0 nonconvex ineq., 1690 nonlinear eq. or two-sided ineq.)
NLP Solvers        :  #Problems  ProblemTi    #Solves  SolveTime      #Iter  Time/Iter      #Okay #TimeLimit #IterLimit #LObjLimit #Interrupt  #NumError #EvalError  #OutOfMem #LicenseEr #OtherTerm   #GlobOpt    #LocOpt  #Feasible #LocInfeas #GlobInfea #Unbounded   #Unknown
  ipopt            :         12       6.05         28     287.60       1608       0.18         26          0          2          0          0          0          0          0          0          0          0          2          0         18          0          0          8
B&B Tree           :
  number of runs   :          1
  nodes            :     139970 (85933 internal, 54037 leaves)
  feasible leaves  :          0
  infeas. leaves   :         32
  objective leaves :      54004
  nodes (total)    :     139970 (85933 internal, 54037 leaves)
  nodes left       :      31887
  max depth        :         63
  max depth (total):         63
  backtracks       :      31045 (22.2%)
  early backtracks :          0 (0.0%)
  nodes exc. ref.  :          0 (0.0%)
  delayed cutoffs  :          1
  repropagations   :        103 (289 domain reductions, 0 cutoffs)
  avg switch length:       6.32
  switching time   :     167.91
Estim. Tree Size   :     279960
Estimation Tree    : 171867 nodes (139980 visited, 85933 internal, 54047 leaves, 31887 open), weight: 0.0000 completed 0.0423
Estimations        :      estim      value      trend resolution     smooth
  wbe              : 535288051729648          -          -          -          -
  tree-profile     :         -1          -          -          -          -
  gap              :    4100984    0.66925    0.00001         64    4045710
  tree-weight      :     279960    0.00000    0.00000         64     279637
  leaf-frequency   :     279960    0.38610   -0.00001         64     367564
  ssg              :    5193176    0.93321   -0.00002         64    5372878
  open-nodes       :     279960 31887.00000   26.69623         64     279637
Root Node          :
  First LP value   : -1.00000000000000e+00
  First LP Iters   :       1630 (11642.86 Iter/sec)
  First LP Time    :       0.14
  Final Dual Bound : -9.44043592921370e-01
  Final Root Iters :       5834
  Root LP Estimate : -3.42367210882173e-01
Solution           :
  Solutions found  :         21 (19 improvements)
  First Solution   : +1.00000000000000e+05   (in run 1, after 0 nodes, 0.02 seconds, depth 0, found by <trivial>)
  Gap First Sol.   :   infinite
  Gap Last Sol.    :      54.51 %
  Primal Bound     : -5.65538383838382e-01   (in run 1, after 12700 nodes, 617.26 seconds, depth 60, found by <alns>)
  Dual Bound       : -8.45028514300588e-01
  Gap              :      49.42 %
Integrals          :      Total       Avg%
  primal-dual      :  124113.12      34.48
  primal-ref       :          -          - (not evaluated)
  dual-ref         :          -          - (not evaluated)
